
  12    4
  10   10   10   10

   0   0   0   0   0   6 2 3 4 5 6 11 
   7  10  10  10  10   4 10 9 8 7 
   1  10  10  10  10   3 9 8 7 
   4  10  10  10  10   3 9 8 7 
  10  10  10  10  10   2 8 7 
   5  10  10  10  10   1 7 
   4  10  10  10  10   1 12
  10  10  10  10  10   1 12
   8  10  10  10  10   1 12
   4  10  10  10  10   1 12
   2  10  10  10  10   1 12
   0   0   0   0   0   0 
